c nIsolatedPIs 64
c maxPI 192
p cnf 662 1411
c gate 193 -80 -176 0
-80 -193 0
-176 -193 0
80 176 193 0
c gate 194 -78 -174 0
-78 -194 0
-174 -194 0
78 174 194 0
c gate 195 -79 -175 0
-79 -195 0
-175 -195 0
79 175 195 0
c gate 196 -194 -195 0
-194 -196 0
-195 -196 0
194 195 196 0
c gate 197 -77 -173 0
-77 -197 0
-173 -197 0
77 173 197 0
c gate 198 196 -197 0
196 -198 0
-197 -198 0
-196 197 198 0
c gate 199 73 169 0
73 -199 0
169 -199 0
-73 -169 199 0
c gate 200 74 170 0
74 -200 0
170 -200 0
-74 -170 200 0
c gate 201 -199 -200 0
-199 -201 0
-200 -201 0
199 200 201 0
c gate 202 -72 -168 0
-72 -202 0
-168 -202 0
72 168 202 0
c gate 203 -73 -169 0
-73 -203 0
-169 -203 0
73 169 203 0
c gate 204 -202 -203 0
-202 -204 0
-203 -204 0
202 203 204 0
c gate 205 -70 -166 0
-70 -205 0
-166 -205 0
70 166 205 0
c gate 206 -71 -167 0
-71 -206 0
-167 -206 0
71 167 206 0
c gate 207 -205 -206 0
-205 -207 0
-206 -207 0
205 206 207 0
c gate 208 -69 -165 0
-69 -208 0
-165 -208 0
69 165 208 0
c gate 209 207 -208 0
207 -209 0
-208 -209 0
-207 208 209 0
c gate 210 66 162 0
66 -210 0
162 -210 0
-66 -162 210 0
c gate 211 65 161 0
65 -211 0
161 -211 0
-65 -161 211 0
c gate 212 -210 -211 0
-210 -212 0
-211 -212 0
210 211 212 0
c gate 213 -67 -163 0
-67 -213 0
-163 -213 0
67 163 213 0
c gate 214 -66 -162 0
-66 -214 0
-162 -214 0
66 162 214 0
c gate 215 -68 -164 0
-68 -215 0
-164 -215 0
68 164 215 0
c gate 216 -214 -215 0
-214 -216 0
-215 -216 0
214 215 216 0
c gate 217 -213 216 0
-213 -217 0
216 -217 0
213 -216 217 0
c gate 218 -212 217 0
-212 -218 0
217 -218 0
212 -217 218 0
c gate 219 68 164 0
68 -219 0
164 -219 0
-68 -164 219 0
c gate 220 67 163 0
67 -220 0
163 -220 0
-67 -163 220 0
c gate 221 -215 220 0
-215 -221 0
220 -221 0
215 -220 221 0
c gate 222 -219 -221 0
-219 -222 0
-221 -222 0
219 221 222 0
c gate 223 -218 222 0
-218 -223 0
222 -223 0
218 -222 223 0
c gate 224 209 -223 0
209 -224 0
-223 -224 0
-209 223 224 0
c gate 225 70 166 0
70 -225 0
166 -225 0
-70 -166 225 0
c gate 226 69 165 0
69 -226 0
165 -226 0
-69 -165 226 0
c gate 227 -225 -226 0
-225 -227 0
-226 -227 0
225 226 227 0
c gate 228 207 -227 0
207 -228 0
-227 -228 0
-207 227 228 0
c gate 229 72 168 0
72 -229 0
168 -229 0
-72 -168 229 0
c gate 230 71 167 0
71 -230 0
167 -230 0
-71 -167 230 0
c gate 231 -229 -230 0
-229 -231 0
-230 -231 0
229 230 231 0
c gate 232 -228 231 0
-228 -232 0
231 -232 0
228 -231 232 0
c gate 233 -224 232 0
-224 -233 0
232 -233 0
224 -232 233 0
c gate 234 204 -233 0
204 -234 0
-233 -234 0
-204 233 234 0
c gate 235 201 -234 0
201 -235 0
-234 -235 0
-201 234 235 0
c gate 236 -75 -171 0
-75 -236 0
-171 -236 0
75 171 236 0
c gate 237 -74 -170 0
-74 -237 0
-170 -237 0
74 170 237 0
c gate 238 -76 -172 0
-76 -238 0
-172 -238 0
76 172 238 0
c gate 239 -237 -238 0
-237 -239 0
-238 -239 0
237 238 239 0
c gate 240 -236 239 0
-236 -240 0
239 -240 0
236 -239 240 0
c gate 241 -235 240 0
-235 -241 0
240 -241 0
235 -240 241 0
c gate 242 76 172 0
76 -242 0
172 -242 0
-76 -172 242 0
c gate 243 75 171 0
75 -243 0
171 -243 0
-75 -171 243 0
c gate 244 -238 243 0
-238 -244 0
243 -244 0
238 -243 244 0
c gate 245 -242 -244 0
-242 -245 0
-244 -245 0
242 244 245 0
c gate 246 -241 245 0
-241 -246 0
245 -246 0
241 -245 246 0
c gate 247 198 -246 0
198 -247 0
-246 -247 0
-198 246 247 0
c gate 248 78 174 0
78 -248 0
174 -248 0
-78 -174 248 0
c gate 249 77 173 0
77 -249 0
173 -249 0
-77 -173 249 0
c gate 250 -248 -249 0
-248 -250 0
-249 -250 0
248 249 250 0
c gate 251 196 -250 0
196 -251 0
-250 -251 0
-196 250 251 0
c gate 252 80 176 0
80 -252 0
176 -252 0
-80 -176 252 0
c gate 253 79 175 0
79 -253 0
175 -253 0
-79 -175 253 0
c gate 254 -252 -253 0
-252 -254 0
-253 -254 0
252 253 254 0
c gate 255 -251 254 0
-251 -255 0
254 -255 0
251 -254 255 0
c gate 256 -247 255 0
-247 -256 0
255 -256 0
247 -255 256 0
c gate 257 -193 -256 0
-193 -257 0
-256 -257 0
193 256 257 0
c gate 258 -40 -136 0
-40 -258 0
-136 -258 0
40 136 258 0
c gate 259 40 136 0
40 -259 0
136 -259 0
-40 -136 259 0
c gate 260 39 135 0
39 -260 0
135 -260 0
-39 -135 260 0
c gate 261 -259 -260 0
-259 -261 0
-260 -261 0
259 260 261 0
c gate 262 -38 -134 0
-38 -262 0
-134 -262 0
38 134 262 0
c gate 263 -39 -135 0
-39 -263 0
-135 -263 0
39 135 263 0
c gate 264 -262 -263 0
-262 -264 0
-263 -264 0
262 263 264 0
c gate 265 38 134 0
38 -265 0
134 -265 0
-38 -134 265 0
c gate 266 37 133 0
37 -266 0
133 -266 0
-37 -133 266 0
c gate 267 -265 -266 0
-265 -267 0
-266 -267 0
265 266 267 0
c gate 268 -37 -133 0
-37 -268 0
-133 -268 0
37 133 268 0
c gate 269 33 129 0
33 -269 0
129 -269 0
-33 -129 269 0
c gate 270 34 130 0
34 -270 0
130 -270 0
-34 -130 270 0
c gate 271 -269 -270 0
-269 -271 0
-270 -271 0
269 270 271 0
c gate 272 -35 -131 0
-35 -272 0
-131 -272 0
35 131 272 0
c gate 273 -34 -130 0
-34 -273 0
-130 -273 0
34 130 273 0
c gate 274 -36 -132 0
-36 -274 0
-132 -274 0
36 132 274 0
c gate 275 -273 -274 0
-273 -275 0
-274 -275 0
273 274 275 0
c gate 276 -272 275 0
-272 -276 0
275 -276 0
272 -275 276 0
c gate 277 -271 276 0
-271 -277 0
276 -277 0
271 -276 277 0
c gate 278 36 132 0
36 -278 0
132 -278 0
-36 -132 278 0
c gate 279 35 131 0
35 -279 0
131 -279 0
-35 -131 279 0
c gate 280 -274 279 0
-274 -280 0
279 -280 0
274 -279 280 0
c gate 281 -278 -280 0
-278 -281 0
-280 -281 0
278 280 281 0
c gate 282 -277 281 0
-277 -282 0
281 -282 0
277 -281 282 0
c gate 283 -268 -282 0
-268 -283 0
-282 -283 0
268 282 283 0
c gate 284 267 -283 0
267 -284 0
-283 -284 0
-267 283 284 0
c gate 285 264 -284 0
264 -285 0
-284 -285 0
-264 284 285 0
c gate 286 261 -285 0
261 -286 0
-285 -286 0
-261 285 286 0
c gate 287 -258 -286 0
-258 -287 0
-286 -287 0
258 286 287 0
c gate 288 42 138 0
42 -288 0
138 -288 0
-42 -138 288 0
c gate 289 41 137 0
41 -289 0
137 -289 0
-41 -137 289 0
c gate 290 -288 -289 0
-288 -290 0
-289 -290 0
288 289 290 0
c gate 291 -42 -138 0
-42 -291 0
-138 -291 0
42 138 291 0
c gate 292 47 143 0
47 -292 0
143 -292 0
-47 -143 292 0
c gate 293 -291 -292 0
-291 -293 0
-292 -293 0
291 292 293 0
c gate 294 290 293 0
290 -294 0
293 -294 0
-290 -293 294 0
c gate 295 46 142 0
46 -295 0
142 -295 0
-46 -142 295 0
c gate 296 45 141 0
45 -296 0
141 -296 0
-45 -141 296 0
c gate 297 -295 -296 0
-295 -297 0
-296 -297 0
295 296 297 0
c gate 298 -47 -143 0
-47 -298 0
-143 -298 0
47 143 298 0
c gate 299 -46 -142 0
-46 -299 0
-142 -299 0
46 142 299 0
c gate 300 -298 -299 0
-298 -300 0
-299 -300 0
298 299 300 0
c gate 301 297 300 0
297 -301 0
300 -301 0
-297 -300 301 0
c gate 302 294 301 0
294 -302 0
301 -302 0
-294 -301 302 0
c gate 303 44 140 0
44 -303 0
140 -303 0
-44 -140 303 0
c gate 304 43 139 0
43 -304 0
139 -304 0
-43 -139 304 0
c gate 305 -303 -304 0
-303 -305 0
-304 -305 0
303 304 305 0
c gate 306 -44 -140 0
-44 -306 0
-140 -306 0
44 140 306 0
c gate 307 -43 -139 0
-43 -307 0
-139 -307 0
43 139 307 0
c gate 308 -306 -307 0
-306 -308 0
-307 -308 0
306 307 308 0
c gate 309 305 308 0
305 -309 0
308 -309 0
-305 -308 309 0
c gate 310 48 144 0
48 -310 0
144 -310 0
-48 -144 310 0
c gate 311 -48 -144 0
-48 -311 0
-144 -311 0
48 144 311 0
c gate 312 -310 -311 0
-310 -312 0
-311 -312 0
310 311 312 0
c gate 313 -41 -137 0
-41 -313 0
-137 -313 0
41 137 313 0
c gate 314 -45 -141 0
-45 -314 0
-141 -314 0
45 141 314 0
c gate 315 -313 -314 0
-313 -315 0
-314 -315 0
313 314 315 0
c gate 316 312 315 0
312 -316 0
315 -316 0
-312 -315 316 0
c gate 317 309 316 0
309 -317 0
316 -317 0
-309 -316 317 0
c gate 318 302 317 0
302 -318 0
317 -318 0
-302 -317 318 0
c gate 319 287 318 0
287 -319 0
318 -319 0
-287 -318 319 0
c gate 320 -305 -306 0
-305 -320 0
-306 -320 0
305 306 320 0
c gate 321 -290 -291 0
-290 -321 0
-291 -321 0
290 291 321 0
c gate 322 309 321 0
309 -322 0
321 -322 0
-309 -321 322 0
c gate 323 -320 -322 0
-320 -323 0
-322 -323 0
320 322 323 0
c gate 324 -314 -323 0
-314 -324 0
-323 -324 0
314 323 324 0
c gate 325 297 -324 0
297 -325 0
-324 -325 0
-297 324 325 0
c gate 326 300 -325 0
300 -326 0
-325 -326 0
-300 325 326 0
c gate 327 -292 -326 0
-292 -327 0
-326 -327 0
292 326 327 0
c gate 328 -311 -327 0
-311 -328 0
-327 -328 0
311 327 328 0
c gate 329 -310 -328 0
-310 -329 0
-328 -329 0
310 328 329 0
c gate 330 -319 329 0
-319 -330 0
329 -330 0
319 -329 330 0
c gate 331 261 264 0
261 -331 0
264 -331 0
-261 -264 331 0
c gate 332 267 271 0
267 -332 0
271 -332 0
-267 -271 332 0
c gate 333 331 332 0
331 -333 0
332 -333 0
-331 -332 333 0
c gate 334 -33 -129 0
-33 -334 0
-129 -334 0
33 129 334 0
c gate 335 -258 -268 0
-258 -335 0
-268 -335 0
258 268 335 0
c gate 336 -334 335 0
-334 -336 0
335 -336 0
334 -335 336 0
c gate 337 276 336 0
276 -337 0
336 -337 0
-276 -336 337 0
c gate 338 281 337 0
281 -338 0
337 -338 0
-281 -337 338 0
c gate 339 333 338 0
333 -339 0
338 -339 0
-333 -338 339 0
c gate 340 318 339 0
318 -340 0
339 -340 0
-318 -339 340 0
c gate 341 2 98 0
2 -341 0
98 -341 0
-2 -98 341 0
c gate 342 1 97 0
1 -342 0
97 -342 0
-1 -97 342 0
c gate 343 -341 -342 0
-341 -343 0
-342 -343 0
341 342 343 0
c gate 344 -3 -99 0
-3 -344 0
-99 -344 0
3 99 344 0
c gate 345 -2 -98 0
-2 -345 0
-98 -345 0
2 98 345 0
c gate 346 -344 -345 0
-344 -346 0
-345 -346 0
344 345 346 0
c gate 347 -343 346 0
-343 -347 0
346 -347 0
343 -346 347 0
c gate 348 4 100 0
4 -348 0
100 -348 0
-4 -100 348 0
c gate 349 3 99 0
3 -349 0
99 -349 0
-3 -99 349 0
c gate 350 -348 -349 0
-348 -350 0
-349 -350 0
348 349 350 0
c gate 351 -347 350 0
-347 -351 0
350 -351 0
347 -350 351 0
c gate 352 -4 -100 0
-4 -352 0
-100 -352 0
4 100 352 0
c gate 353 -5 -101 0
-5 -353 0
-101 -353 0
5 101 353 0
c gate 354 -352 -353 0
-352 -354 0
-353 -354 0
352 353 354 0
c gate 355 -351 354 0
-351 -355 0
354 -355 0
351 -354 355 0
c gate 356 6 102 0
6 -356 0
102 -356 0
-6 -102 356 0
c gate 357 5 101 0
5 -357 0
101 -357 0
-5 -101 357 0
c gate 358 -356 -357 0
-356 -358 0
-357 -358 0
356 357 358 0
c gate 359 -355 358 0
-355 -359 0
358 -359 0
355 -358 359 0
c gate 360 -7 -103 0
-7 -360 0
-103 -360 0
7 103 360 0
c gate 361 -6 -102 0
-6 -361 0
-102 -361 0
6 102 361 0
c gate 362 -360 -361 0
-360 -362 0
-361 -362 0
360 361 362 0
c gate 363 -359 362 0
-359 -363 0
362 -363 0
359 -362 363 0
c gate 364 8 104 0
8 -364 0
104 -364 0
-8 -104 364 0
c gate 365 7 103 0
7 -365 0
103 -365 0
-7 -103 365 0
c gate 366 -364 -365 0
-364 -366 0
-365 -366 0
364 365 366 0
c gate 367 -363 366 0
-363 -367 0
366 -367 0
363 -366 367 0
c gate 368 -9 -105 0
-9 -368 0
-105 -368 0
9 105 368 0
c gate 369 -8 -104 0
-8 -369 0
-104 -369 0
8 104 369 0
c gate 370 -368 -369 0
-368 -370 0
-369 -370 0
368 369 370 0
c gate 371 -367 370 0
-367 -371 0
370 -371 0
367 -370 371 0
c gate 372 10 106 0
10 -372 0
106 -372 0
-10 -106 372 0
c gate 373 9 105 0
9 -373 0
105 -373 0
-9 -105 373 0
c gate 374 -372 -373 0
-372 -374 0
-373 -374 0
372 373 374 0
c gate 375 -371 374 0
-371 -375 0
374 -375 0
371 -374 375 0
c gate 376 -10 -106 0
-10 -376 0
-106 -376 0
10 106 376 0
c gate 377 -12 -108 0
-12 -377 0
-108 -377 0
12 108 377 0
c gate 378 -11 -107 0
-11 -378 0
-107 -378 0
11 107 378 0
c gate 379 -377 -378 0
-377 -379 0
-378 -379 0
377 378 379 0
c gate 380 -376 379 0
-376 -380 0
379 -380 0
376 -379 380 0
c gate 381 -375 380 0
-375 -381 0
380 -381 0
375 -380 381 0
c gate 382 12 108 0
12 -382 0
108 -382 0
-12 -108 382 0
c gate 383 11 107 0
11 -383 0
107 -383 0
-11 -107 383 0
c gate 384 -377 383 0
-377 -384 0
383 -384 0
377 -383 384 0
c gate 385 -382 -384 0
-382 -385 0
-384 -385 0
382 384 385 0
c gate 386 -381 385 0
-381 -386 0
385 -386 0
381 -385 386 0
c gate 387 -14 -110 0
-14 -387 0
-110 -387 0
14 110 387 0
c gate 388 -15 -111 0
-15 -388 0
-111 -388 0
15 111 388 0
c gate 389 -387 -388 0
-387 -389 0
-388 -389 0
387 388 389 0
c gate 390 14 110 0
14 -390 0
110 -390 0
-14 -110 390 0
c gate 391 13 109 0
13 -391 0
109 -391 0
-13 -109 391 0
c gate 392 -390 -391 0
-390 -392 0
-391 -392 0
390 391 392 0
c gate 393 -13 -109 0
-13 -393 0
-109 -393 0
13 109 393 0
c gate 394 392 -393 0
392 -394 0
-393 -394 0
-392 393 394 0
c gate 395 389 394 0
389 -395 0
394 -395 0
-389 -394 395 0
c gate 396 -386 395 0
-386 -396 0
395 -396 0
386 -395 396 0
c gate 397 389 -392 0
389 -397 0
-392 -397 0
-389 392 397 0
c gate 398 15 111 0
15 -398 0
111 -398 0
-15 -111 398 0
c gate 399 16 112 0
16 -399 0
112 -399 0
-16 -112 399 0
c gate 400 -398 -399 0
-398 -400 0
-399 -400 0
398 399 400 0
c gate 401 -397 400 0
-397 -401 0
400 -401 0
397 -400 401 0
c gate 402 -396 401 0
-396 -402 0
401 -402 0
396 -401 402 0
c gate 403 -20 -116 0
-20 -403 0
-116 -403 0
20 116 403 0
c gate 404 19 -403 0
19 -404 0
-403 -404 0
-19 403 404 0
c gate 405 115 -403 0
115 -405 0
-403 -405 0
-115 403 405 0
c gate 406 -404 -405 0
-404 -406 0
-405 -406 0
404 405 406 0
c gate 407 28 124 0
28 -407 0
124 -407 0
-28 -124 407 0
c gate 408 -28 -124 0
-28 -408 0
-124 -408 0
28 124 408 0
c gate 409 27 123 0
27 -409 0
123 -409 0
-27 -123 409 0
c gate 410 -408 409 0
-408 -410 0
409 -410 0
408 -409 410 0
c gate 411 -407 -410 0
-407 -411 0
-410 -411 0
407 410 411 0
c gate 412 -27 -123 0
-27 -412 0
-123 -412 0
27 123 412 0
c gate 413 -26 -122 0
-26 -413 0
-122 -413 0
26 122 413 0
c gate 414 -408 -413 0
-408 -414 0
-413 -414 0
408 413 414 0
c gate 415 -412 414 0
-412 -415 0
414 -415 0
412 -414 415 0
c gate 416 411 415 0
411 -416 0
415 -416 0
-411 -415 416 0
c gate 417 -406 416 0
-406 -417 0
416 -417 0
406 -416 417 0
c gate 418 -23 -119 0
-23 -418 0
-119 -418 0
23 119 418 0
c gate 419 -22 -118 0
-22 -419 0
-118 -419 0
22 118 419 0
c gate 420 -418 -419 0
-418 -420 0
-419 -420 0
418 419 420 0
c gate 421 24 120 0
24 -421 0
120 -421 0
-24 -120 421 0
c gate 422 23 119 0
23 -422 0
119 -422 0
-23 -119 422 0
c gate 423 -421 -422 0
-421 -423 0
-422 -423 0
421 422 423 0
c gate 424 420 423 0
420 -424 0
423 -424 0
-420 -423 424 0
c gate 425 22 118 0
22 -425 0
118 -425 0
-22 -118 425 0
c gate 426 21 117 0
21 -426 0
117 -426 0
-21 -117 426 0
c gate 427 -425 -426 0
-425 -427 0
-426 -427 0
425 426 427 0
c gate 428 -25 -121 0
-25 -428 0
-121 -428 0
25 121 428 0
c gate 429 -24 -120 0
-24 -429 0
-120 -429 0
24 120 429 0
c gate 430 -428 -429 0
-428 -430 0
-429 -430 0
428 429 430 0
c gate 431 427 430 0
427 -431 0
430 -431 0
-427 -430 431 0
c gate 432 424 431 0
424 -432 0
431 -432 0
-424 -431 432 0
c gate 433 -16 -112 0
-16 -433 0
-112 -433 0
16 112 433 0
c gate 434 -18 -114 0
-18 -434 0
-114 -434 0
18 114 434 0
c gate 435 -433 -434 0
-433 -435 0
-434 -435 0
433 434 435 0
c gate 436 -17 -113 0
-17 -436 0
-113 -436 0
17 113 436 0
c gate 437 -21 -117 0
-21 -437 0
-117 -437 0
21 117 437 0
c gate 438 -436 -437 0
-436 -438 0
-437 -438 0
436 437 438 0
c gate 439 435 438 0
435 -439 0
438 -439 0
-435 -438 439 0
c gate 440 17 113 0
17 -440 0
113 -440 0
-17 -113 440 0
c gate 441 18 114 0
18 -441 0
114 -441 0
-18 -114 441 0
c gate 442 -440 -441 0
-440 -442 0
-441 -442 0
440 441 442 0
c gate 443 25 121 0
25 -443 0
121 -443 0
-25 -121 443 0
c gate 444 26 122 0
26 -444 0
122 -444 0
-26 -122 444 0
c gate 445 -443 -444 0
-443 -445 0
-444 -445 0
443 444 445 0
c gate 446 442 445 0
442 -446 0
445 -446 0
-442 -445 446 0
c gate 447 439 446 0
439 -447 0
446 -447 0
-439 -446 447 0
c gate 448 432 447 0
432 -448 0
447 -448 0
-432 -447 448 0
c gate 449 30 126 0
30 -449 0
126 -449 0
-30 -126 449 0
c gate 450 29 125 0
29 -450 0
125 -450 0
-29 -125 450 0
c gate 451 -449 -450 0
-449 -451 0
-450 -451 0
449 450 451 0
c gate 452 -29 -125 0
-29 -452 0
-125 -452 0
29 125 452 0
c gate 453 -32 -128 0
-32 -453 0
-128 -453 0
32 128 453 0
c gate 454 -452 -453 0
-452 -454 0
-453 -454 0
452 453 454 0
c gate 455 451 454 0
451 -455 0
454 -455 0
-451 -454 455 0
c gate 456 -31 -127 0
-31 -456 0
-127 -456 0
31 127 456 0
c gate 457 -30 -126 0
-30 -457 0
-126 -457 0
30 126 457 0
c gate 458 -456 -457 0
-456 -458 0
-457 -458 0
456 457 458 0
c gate 459 32 128 0
32 -459 0
128 -459 0
-32 -128 459 0
c gate 460 31 127 0
31 -460 0
127 -460 0
-31 -127 460 0
c gate 461 -459 -460 0
-459 -461 0
-460 -461 0
459 460 461 0
c gate 462 458 461 0
458 -462 0
461 -462 0
-458 -461 462 0
c gate 463 455 462 0
455 -463 0
462 -463 0
-455 -462 463 0
c gate 464 20 116 0
20 -464 0
116 -464 0
-20 -116 464 0
c gate 465 115 404 0
115 -465 0
404 -465 0
-115 -404 465 0
c gate 466 -464 -465 0
-464 -466 0
-465 -466 0
464 465 466 0
c gate 467 463 466 0
463 -467 0
466 -467 0
-463 -466 467 0
c gate 468 448 467 0
448 -468 0
467 -468 0
-448 -467 468 0
c gate 469 417 468 0
417 -469 0
468 -469 0
-417 -468 469 0
c gate 470 -402 469 0
-402 -470 0
469 -470 0
402 -469 470 0
c gate 471 -434 -442 0
-434 -471 0
-442 -471 0
434 442 471 0
c gate 472 -406 471 0
-406 -472 0
471 -472 0
406 -471 472 0
c gate 473 466 -472 0
466 -473 0
-472 -473 0
-466 472 473 0
c gate 474 -437 -473 0
-437 -474 0
-473 -474 0
437 473 474 0
c gate 475 427 -474 0
427 -475 0
-474 -475 0
-427 474 475 0
c gate 476 420 -475 0
420 -476 0
-475 -476 0
-420 475 476 0
c gate 477 423 -476 0
423 -477 0
-476 -477 0
-423 476 477 0
c gate 478 430 -477 0
430 -478 0
-477 -478 0
-430 477 478 0
c gate 479 445 -478 0
445 -479 0
-478 -479 0
-445 478 479 0
c gate 480 415 -479 0
415 -480 0
-479 -480 0
-415 479 480 0
c gate 481 411 -480 0
411 -481 0
-480 -481 0
-411 480 481 0
c gate 482 463 -481 0
463 -482 0
-481 -482 0
-463 481 482 0
c gate 483 -451 458 0
-451 -483 0
458 -483 0
451 -458 483 0
c gate 484 461 -483 0
461 -484 0
-483 -484 0
-461 483 484 0
c gate 485 -453 -484 0
-453 -485 0
-484 -485 0
453 484 485 0
c gate 486 -482 -485 0
-482 -486 0
-485 -486 0
482 485 486 0
c gate 487 -470 486 0
-470 -487 0
486 -487 0
470 -486 487 0
c gate 488 340 -487 0
340 -488 0
-487 -488 0
-340 487 488 0
c gate 489 330 -488 0
330 -489 0
-488 -489 0
-330 488 489 0
c gate 490 -59 -155 0
-59 -490 0
-155 -490 0
59 155 490 0
c gate 491 -60 -156 0
-60 -491 0
-156 -491 0
60 156 491 0
c gate 492 -58 -154 0
-58 -492 0
-154 -492 0
58 154 492 0
c gate 493 -491 -492 0
-491 -493 0
-492 -493 0
491 492 493 0
c gate 494 -490 493 0
-490 -494 0
493 -494 0
490 -493 494 0
c gate 495 60 156 0
60 -495 0
156 -495 0
-60 -156 495 0
c gate 496 59 155 0
59 -496 0
155 -496 0
-59 -155 496 0
c gate 497 -491 496 0
-491 -497 0
496 -497 0
491 -496 497 0
c gate 498 -495 -497 0
-495 -498 0
-497 -498 0
495 497 498 0
c gate 499 -52 -148 0
-52 -499 0
-148 -499 0
52 148 499 0
c gate 500 51 -499 0
51 -500 0
-499 -500 0
-51 499 500 0
c gate 501 147 -499 0
147 -501 0
-499 -501 0
-147 499 501 0
c gate 502 -500 -501 0
-500 -502 0
-501 -502 0
500 501 502 0
c gate 503 498 -502 0
498 -503 0
-502 -503 0
-498 502 503 0
c gate 504 494 503 0
494 -504 0
503 -504 0
-494 -503 504 0
c gate 505 56 152 0
56 -505 0
152 -505 0
-56 -152 505 0
c gate 506 55 151 0
55 -506 0
151 -506 0
-55 -151 506 0
c gate 507 -505 -506 0
-505 -507 0
-506 -507 0
505 506 507 0
c gate 508 -57 -153 0
-57 -508 0
-153 -508 0
57 153 508 0
c gate 509 -56 -152 0
-56 -509 0
-152 -509 0
56 152 509 0
c gate 510 -508 -509 0
-508 -510 0
-509 -510 0
508 509 510 0
c gate 511 507 510 0
507 -511 0
510 -511 0
-507 -510 511 0
c gate 512 49 145 0
49 -512 0
145 -512 0
-49 -145 512 0
c gate 513 50 146 0
50 -513 0
146 -513 0
-50 -146 513 0
c gate 514 -512 -513 0
-512 -514 0
-513 -514 0
512 513 514 0
c gate 515 57 153 0
57 -515 0
153 -515 0
-57 -153 515 0
c gate 516 58 154 0
58 -516 0
154 -516 0
-58 -154 516 0
c gate 517 -515 -516 0
-515 -517 0
-516 -517 0
515 516 517 0
c gate 518 514 517 0
514 -518 0
517 -518 0
-514 -517 518 0
c gate 519 511 518 0
511 -519 0
518 -519 0
-511 -518 519 0
c gate 520 -53 -149 0
-53 -520 0
-149 -520 0
53 149 520 0
c gate 521 -50 -146 0
-50 -521 0
-146 -521 0
50 146 521 0
c gate 522 -49 -145 0
-49 -522 0
-145 -522 0
49 145 522 0
c gate 523 -521 -522 0
-521 -523 0
-522 -523 0
521 522 523 0
c gate 524 -520 523 0
-520 -524 0
523 -524 0
520 -523 524 0
c gate 525 54 150 0
54 -525 0
150 -525 0
-54 -150 525 0
c gate 526 53 149 0
53 -526 0
149 -526 0
-53 -149 526 0
c gate 527 -525 -526 0
-525 -527 0
-526 -527 0
525 526 527 0
c gate 528 -55 -151 0
-55 -528 0
-151 -528 0
55 151 528 0
c gate 529 -54 -150 0
-54 -529 0
-150 -529 0
54 150 529 0
c gate 530 -528 -529 0
-528 -530 0
-529 -530 0
528 529 530 0
c gate 531 527 530 0
527 -531 0
530 -531 0
-527 -530 531 0
c gate 532 524 531 0
524 -532 0
531 -532 0
-524 -531 532 0
c gate 533 519 532 0
519 -533 0
532 -533 0
-519 -532 533 0
c gate 534 62 158 0
62 -534 0
158 -534 0
-62 -158 534 0
c gate 535 61 157 0
61 -535 0
157 -535 0
-61 -157 535 0
c gate 536 -534 -535 0
-534 -536 0
-535 -536 0
534 535 536 0
c gate 537 -61 -157 0
-61 -537 0
-157 -537 0
61 157 537 0
c gate 538 -64 -160 0
-64 -538 0
-160 -538 0
64 160 538 0
c gate 539 -537 -538 0
-537 -539 0
-538 -539 0
537 538 539 0
c gate 540 536 539 0
536 -540 0
539 -540 0
-536 -539 540 0
c gate 541 -63 -159 0
-63 -541 0
-159 -541 0
63 159 541 0
c gate 542 -62 -158 0
-62 -542 0
-158 -542 0
62 158 542 0
c gate 543 -541 -542 0
-541 -543 0
-542 -543 0
541 542 543 0
c gate 544 64 160 0
64 -544 0
160 -544 0
-64 -160 544 0
c gate 545 63 159 0
63 -545 0
159 -545 0
-63 -159 545 0
c gate 546 -544 -545 0
-544 -546 0
-545 -546 0
544 545 546 0
c gate 547 543 546 0
543 -547 0
546 -547 0
-543 -546 547 0
c gate 548 540 547 0
540 -548 0
547 -548 0
-540 -547 548 0
c gate 549 52 148 0
52 -549 0
148 -549 0
-52 -148 549 0
c gate 550 147 500 0
147 -550 0
500 -550 0
-147 -500 550 0
c gate 551 -549 -550 0
-549 -551 0
-550 -551 0
549 550 551 0
c gate 552 548 551 0
548 -552 0
551 -552 0
-548 -551 552 0
c gate 553 533 552 0
533 -553 0
552 -553 0
-533 -552 553 0
c gate 554 504 553 0
504 -554 0
553 -554 0
-504 -553 554 0
c gate 555 88 184 0
88 -555 0
184 -555 0
-88 -184 555 0
c gate 556 87 183 0
87 -556 0
183 -556 0
-87 -183 556 0
c gate 557 -555 -556 0
-555 -557 0
-556 -557 0
555 556 557 0
c gate 558 -86 -182 0
-86 -558 0
-182 -558 0
86 182 558 0
c gate 559 -87 -183 0
-87 -559 0
-183 -559 0
87 183 559 0
c gate 560 -88 -184 0
-88 -560 0
-184 -560 0
88 184 560 0
c gate 561 -559 -560 0
-559 -561 0
-560 -561 0
559 560 561 0
c gate 562 -558 561 0
-558 -562 0
561 -562 0
558 -561 562 0
c gate 563 557 562 0
557 -563 0
562 -563 0
-557 -562 563 0
c gate 564 86 182 0
86 -564 0
182 -564 0
-86 -182 564 0
c gate 565 85 181 0
85 -565 0
181 -565 0
-85 -181 565 0
c gate 566 -564 -565 0
-564 -566 0
-565 -566 0
564 565 566 0
c gate 567 -85 -181 0
-85 -567 0
-181 -567 0
85 181 567 0
c gate 568 82 178 0
82 -568 0
178 -568 0
-82 -178 568 0
c gate 569 81 177 0
81 -569 0
177 -569 0
-81 -177 569 0
c gate 570 -568 -569 0
-568 -570 0
-569 -570 0
568 569 570 0
c gate 571 -83 -179 0
-83 -571 0
-179 -571 0
83 179 571 0
c gate 572 -82 -178 0
-82 -572 0
-178 -572 0
82 178 572 0
c gate 573 -84 -180 0
-84 -573 0
-180 -573 0
84 180 573 0
c gate 574 -572 -573 0
-572 -574 0
-573 -574 0
572 573 574 0
c gate 575 -571 574 0
-571 -575 0
574 -575 0
571 -574 575 0
c gate 576 -570 575 0
-570 -576 0
575 -576 0
570 -575 576 0
c gate 577 84 180 0
84 -577 0
180 -577 0
-84 -180 577 0
c gate 578 83 179 0
83 -578 0
179 -578 0
-83 -179 578 0
c gate 579 -573 578 0
-573 -579 0
578 -579 0
573 -578 579 0
c gate 580 -577 -579 0
-577 -580 0
-579 -580 0
577 579 580 0
c gate 581 -576 580 0
-576 -581 0
580 -581 0
576 -580 581 0
c gate 582 -567 -581 0
-567 -582 0
-581 -582 0
567 581 582 0
c gate 583 566 -582 0
566 -583 0
-582 -583 0
-566 582 583 0
c gate 584 563 -583 0
563 -584 0
-583 -584 0
-563 583 584 0
c gate 585 -92 -188 0
-92 -585 0
-188 -585 0
92 188 585 0
c gate 586 91 187 0
91 -586 0
187 -586 0
-91 -187 586 0
c gate 587 -585 586 0
-585 -587 0
586 -587 0
585 -586 587 0
c gate 588 89 -185 0
89 -588 0
-185 -588 0
-89 185 588 0
c gate 589 -89 185 0
-89 -589 0
185 -589 0
89 -185 589 0
c gate 590 -588 -589 0
-588 -590 0
-589 -590 0
588 589 590 0
c gate 591 95 -191 0
95 -591 0
-191 -591 0
-95 191 591 0
c gate 592 -95 191 0
-95 -592 0
191 -592 0
95 -191 592 0
c gate 593 -591 -592 0
-591 -593 0
-592 -593 0
591 592 593 0
c gate 594 -590 -593 0
-590 -594 0
-593 -594 0
590 593 594 0
c gate 595 -587 594 0
-587 -595 0
594 -595 0
587 -594 595 0
c gate 596 -96 -192 0
-96 -596 0
-192 -596 0
96 192 596 0
c gate 597 -94 -190 0
-94 -597 0
-190 -597 0
94 190 597 0
c gate 598 -596 -597 0
-596 -598 0
-597 -598 0
596 597 598 0
c gate 599 90 186 0
90 -599 0
186 -599 0
-90 -186 599 0
c gate 600 -93 -189 0
-93 -600 0
-189 -600 0
93 189 600 0
c gate 601 -599 -600 0
-599 -601 0
-600 -601 0
599 600 601 0
c gate 602 598 601 0
598 -602 0
601 -602 0
-598 -601 602 0
c gate 603 94 190 0
94 -603 0
190 -603 0
-94 -190 603 0
c gate 604 92 188 0
92 -604 0
188 -604 0
-92 -188 604 0
c gate 605 -603 -604 0
-603 -605 0
-604 -605 0
603 604 605 0
c gate 606 -90 -186 0
-90 -606 0
-186 -606 0
90 186 606 0
c gate 607 -585 -606 0
-585 -607 0
-606 -607 0
585 606 607 0
c gate 608 605 607 0
605 -608 0
607 -608 0
-605 -607 608 0
c gate 609 602 608 0
602 -609 0
608 -609 0
-602 -608 609 0
c gate 610 -557 -560 0
-557 -610 0
-560 -610 0
557 560 610 0
c gate 611 96 192 0
96 -611 0
192 -611 0
-96 -192 611 0
c gate 612 93 189 0
93 -612 0
189 -612 0
-93 -189 612 0
c gate 613 -91 -187 0
-91 -613 0
-187 -613 0
91 187 613 0
c gate 614 -612 -613 0
-612 -614 0
-613 -614 0
612 613 614 0
c gate 615 -611 614 0
-611 -615 0
614 -615 0
611 -614 615 0
c gate 616 -610 615 0
-610 -616 0
615 -616 0
610 -615 616 0
c gate 617 609 616 0
609 -617 0
616 -617 0
-609 -616 617 0
c gate 618 595 617 0
595 -618 0
617 -618 0
-595 -617 618 0
c gate 619 -584 618 0
-584 -619 0
618 -619 0
584 -618 619 0
c gate 620 554 -619 0
554 -620 0
-619 -620 0
-554 619 620 0
c gate 621 -489 620 0
-489 -621 0
620 -621 0
489 -620 621 0
c gate 622 -514 -521 0
-514 -622 0
-521 -622 0
514 521 622 0
c gate 623 -502 622 0
-502 -623 0
622 -623 0
502 -622 623 0
c gate 624 551 -623 0
551 -624 0
-623 -624 0
-551 623 624 0
c gate 625 -520 -624 0
-520 -625 0
-624 -625 0
520 624 625 0
c gate 626 527 -625 0
527 -626 0
-625 -626 0
-527 625 626 0
c gate 627 530 -626 0
530 -627 0
-626 -627 0
-530 626 627 0
c gate 628 507 -627 0
507 -628 0
-627 -628 0
-507 627 628 0
c gate 629 510 -628 0
510 -629 0
-628 -629 0
-510 628 629 0
c gate 630 517 -629 0
517 -630 0
-629 -630 0
-517 629 630 0
c gate 631 494 -630 0
494 -631 0
-630 -631 0
-494 630 631 0
c gate 632 498 -631 0
498 -632 0
-631 -632 0
-498 631 632 0
c gate 633 548 -632 0
548 -633 0
-632 -633 0
-548 632 633 0
c gate 634 -536 543 0
-536 -634 0
543 -634 0
536 -543 634 0
c gate 635 546 -634 0
546 -635 0
-634 -635 0
-546 634 635 0
c gate 636 -538 -635 0
-538 -636 0
-635 -636 0
538 635 636 0
c gate 637 -633 -636 0
-633 -637 0
-636 -637 0
633 636 637 0
c gate 638 -621 637 0
-621 -638 0
637 -638 0
621 -637 638 0
c gate 639 217 222 0
217 -639 0
222 -639 0
-217 -222 639 0
c gate 640 240 245 0
240 -640 0
245 -640 0
-240 -245 640 0
c gate 641 639 640 0
639 -641 0
640 -641 0
-639 -640 641 0
c gate 642 -65 -161 0
-65 -642 0
-161 -642 0
65 161 642 0
c gate 643 -193 -642 0
-193 -643 0
-642 -643 0
193 642 643 0
c gate 644 201 643 0
201 -644 0
643 -644 0
-201 -643 644 0
c gate 645 204 212 0
204 -645 0
212 -645 0
-204 -212 645 0
c gate 646 644 645 0
644 -646 0
645 -646 0
-644 -645 646 0
c gate 647 198 209 0
198 -647 0
209 -647 0
-198 -209 647 0
c gate 648 646 647 0
646 -648 0
647 -648 0
-646 -647 648 0
c gate 649 232 255 0
232 -649 0
255 -649 0
-232 -255 649 0
c gate 650 648 649 0
648 -650 0
649 -650 0
-648 -649 650 0
c gate 651 641 650 0
641 -651 0
650 -651 0
-641 -650 651 0
c gate 652 -638 651 0
-638 -652 0
651 -652 0
638 -651 652 0
c gate 653 -257 -652 0
-257 -653 0
-652 -653 0
257 652 653 0
c gate 654 -81 -177 0
-81 -654 0
-177 -654 0
81 177 654 0
c gate 655 -567 -654 0
-567 -655 0
-654 -655 0
567 654 655 0
c gate 656 566 655 0
566 -656 0
655 -656 0
-566 -655 656 0
c gate 657 570 656 0
570 -657 0
656 -657 0
-570 -656 657 0
c gate 658 575 580 0
575 -658 0
580 -658 0
-575 -580 658 0
c gate 659 657 658 0
657 -659 0
658 -659 0
-657 -658 659 0
c gate 660 563 659 0
563 -660 0
659 -660 0
-563 -659 660 0
c gate 661 619 660 0
619 -661 0
660 -661 0
-619 -660 661 0
c gate 662 -653 661 0
-653 -662 0
661 -662 0
653 -661 662 0
c PO
662 0
